NAME          MIP_VARIED_EX07
ROWS
 N   OBJ
 E   C1
 L   C2
COLUMNS
    X1       OBJ       3
    X1       C2       2
    X2       OBJ       4
    X2       C1       2
    X2       C2       1
    X3       OBJ       2
    X3       C1       2
    X3       C2       3
RHS
    RHS1     C1        8
    RHS1     C2        8
BOUNDS
 BV BND1     X1
 BV BND1     X2
 BV BND1     X3
ENDATA